
Gurobi 6.5.2 (win64) logging started 07/22/16 22:04:46


Gurobi 6.5.2 (win64) logging started 07/22/16 22:04:46

Optimize a model with 3728 rows, 367 columns and 8180 nonzeros
Coefficient statistics:
  Matrix range    [1e+00, 4e+02]
  Objective range [2e+00, 4e+02]
  Bounds range    [1e+00, 1e+00]
  RHS range       [1e+00, 2e+03]
Presolve removed 3585 rows and 30 columns
Presolve time: 0.00s
Presolved: 143 rows, 337 columns, 1536 nonzeros
Variable types: 0 continuous, 337 integer (337 binary)

Root relaxation: objective 1.866000e+03, 128 iterations, 0.00 seconds

    Nodes    |    Current Node    |     Objective Bounds      |     Work
 Expl Unexpl |  Obj  Depth IntInf | Incumbent    BestBd   Gap | It/Node Time

*    0     0               0    1866.0000000 1866.00000  0.00%     -    0s

Explored 0 nodes (128 simplex iterations) in 0.03 seconds
Thread count was 8 (of 8 available processors)

Optimal solution found (tolerance 1.00e-04)
Best objective 1.866000000000e+03, best bound 1.866000000000e+03, gap 0.0%

Wrote requested result file 'H1\instance28\\Results28SG_Sol4.lp'

